# Solution for model GasLib-40
# Objective value = 68.5123777638241
loadshed[innode_1] 0
loadshed[innode_2] 0
loadshed[innode_3] 0
loadshed[innode_4] 0
loadshed[innode_5] 0
loadshed[innode_6] 0
loadshed[innode_7] 0
loadshed[innode_8] 0
loadshed[source_1] -3.0329167327043383e-03
loadshed[source_2] 1.4820755390142526e-01
loadshed[source_3] 2.8820038580467144e-01
loadshed[sink_1] 1
loadshed[sink_2] 0
loadshed[sink_3] 0
loadshed[sink_4] 0
loadshed[sink_5] 0
loadshed[sink_6] 0
loadshed[sink_7] 0
loadshed[sink_8] 0
loadshed[sink_9] 0
loadshed[sink_10] 0
loadshed[sink_11] 0
loadshed[sink_12] 1
loadshed[sink_13] 0
loadshed[sink_14] 0
loadshed[sink_15] 0
loadshed[sink_16] 0
loadshed[sink_17] 0
loadshed[sink_18] 0.0469886057582346
loadshed[sink_19] 0
loadshed[sink_20] 0
loadshed[sink_21] 1
loadshed[sink_22] 1.9756793819497986e-01
loadshed[sink_23] 0
loadshed[sink_24] 9.4473534479017018e-01
loadshed[sink_25] 0
loadshed[sink_26] 0
loadshed[sink_27] 0
loadshed[sink_28] 0
loadshed[sink_29] 0
flow[source_1,sink_3] 1.5856975242652788e+02
flow[innode_1,sink_16] 1.6354166666666970e+01
flow[innode_6,sink_13] 1.9505679364125719e+00
flow[sink_13,sink_14] -1.4403598730254096e+01
flow[sink_14,sink_10] -3.0757765396920764e+01
flow[sink_25,sink_26] 4.9062500000005230e+01
flow[sink_26,sink_9] 1.6354166666669244e+01
flow[sink_9,sink_18] 0
flow[sink_26,sink_4] 16.3541666666693
flow[sink_4,sink_20] 0
flow[sink_18,sink_6] -1.5585707176662206e+01
flow[sink_25,innode_8] -1.2586141909319153e+02
flow[sink_6,sink_7] -4.5062981520765163e+01
flow[sink_6,sink_22] 1.3123107677436268e+01
flow[sink_7,sink_24] 9.0380738207742572e-01
flow[sink_22,sink_1] 0
flow[sink_24,sink_21] 0
flow[sink_21,sink_12] 0
flow[sink_7,sink_5] -6.2320955569509238e+01
flow[sink_5,sink_17] -7.8675122236175909e+01
flow[sink_17,sink_4] 0
flow[sink_17,sink_8] -9.5029288902842609e+01
flow[sink_3,sink_23] 16.3541666666697
flow[sink_8,sink_20] -1.1138345556950924e+02
flow[sink_25,sink_20] 1.2773762223617609e+02
flow[sink_25,sink_15] -6.9243437746068579e+01
flow[sink_15,sink_29] -4.9436380642114926e+01
flow[sink_29,sink_28] 1.6354166666667879e+01
flow[sink_29,sink_2] 5.2515390437286996e+01
flow[sink_2,sink_15] 3.6161223770620325e+01
flow[sink_29,innode_7] -1.3466010441273647e+02
flow[innode_4,sink_19] 4.3344086632293262e+01
flow[sink_19,innode_3] 3.8951952592540337e+01
flow[innode_4,innode_5] 6.9184512097961274e+01
flow[sink_27,innode_5] -6.9184512097961274e+01
flow[sink_27,sink_19] 5.2830345431294610e+01
flow[sink_10,sink_11] 3.2708333333333641e+01
flow[sink_10,innode_2] -4.0868312804380722e+01
flow[sink_10,innode_3] -3.8951952592540337e+01
flow[innode_6,sink_25] -1.9505679364125719e+00
flow[sink_11,innode_1] 1.6354166666666970e+01
flow[sink_19,innode_2] 4.0868312804380722e+01
flow[source_3,innode_4] 1.1252859873025454e+02
flow[source_2,innode_7] 1.3466010441273647e+02
flow[sink_3,innode_8] 1.2586141909319153e+02
pressure[innode_1] 7.6945510178188556e+01
pressure[innode_2] 79.2572706091636
pressure[innode_3] 7.9171015920977581e+01
pressure[innode_4] 81.01325
pressure[innode_5] 8.0965661244468407e+01
pressure[innode_6] 7.5627389059131147e+01
pressure[innode_7] 81.01325
pressure[innode_8] 8.0483211893479179e+01
pressure[source_1] 81.01325
pressure[source_2] 81.01325
pressure[source_3] 81.01325
pressure[sink_1] 1.0132500000000002e+00
pressure[sink_2] 7.6081345630322943e+01
pressure[sink_3] 8.0483211893479179e+01
pressure[sink_4] 70.092634920466
pressure[sink_5] 2.7966840179521370e+01
pressure[sink_6] 1.4294347863655044e+00
pressure[sink_7] 2.0480421087548977e+00
pressure[sink_8] 3.7413270056325160e+01
pressure[sink_9] 7.1193106912996768e+01
pressure[sink_10] 77.0972114857921
pressure[sink_11] 7.6945510178188556e+01
pressure[sink_12] 1.01325
pressure[sink_13] 7.5616635904067891e+01
pressure[sink_14] 7.5642412370910989e+01
pressure[sink_15] 7.5963287204517215e+01
pressure[sink_16] 7.5923860343370876e+01
pressure[sink_17] 33.8275681059992
pressure[sink_18] 1.01325
pressure[sink_19] 79.2572706091636
pressure[sink_20] 4.5175130493794732e+01
pressure[sink_21] 1.01325
pressure[sink_22] 1.0132500000000002e+00
pressure[sink_23] 8.0318493881819393e+01
pressure[sink_24] 1.01325
pressure[sink_25] 7.5627389059131147e+01
pressure[sink_26] 7.2171945996939186e+01
pressure[sink_27] 8.0391557633287889e+01
pressure[sink_28] 7.7116337463695075e+01
pressure[sink_29] 7.7411619737312265e+01
interdiction[source_1,sink_3] 0
interdiction[innode_1,sink_16] 0
interdiction[innode_6,sink_13] 0
interdiction[sink_13,sink_14] 0
interdiction[sink_14,sink_10] 0
interdiction[sink_25,sink_26] 0
interdiction[sink_26,sink_9] 0
interdiction[sink_9,sink_18] 1
interdiction[sink_26,sink_4] 0
interdiction[sink_4,sink_20] 1
interdiction[sink_18,sink_6] 0
interdiction[sink_25,innode_8] 0
interdiction[sink_6,sink_7] 0
interdiction[sink_6,sink_22] 0
interdiction[sink_7,sink_24] 0
interdiction[sink_22,sink_1] 0
interdiction[sink_24,sink_21] 0
interdiction[sink_21,sink_12] 0
interdiction[sink_7,sink_5] 0
interdiction[sink_5,sink_17] 0
interdiction[sink_17,sink_4] 1
interdiction[sink_17,sink_8] 0
interdiction[sink_3,sink_23] 0
interdiction[sink_8,sink_20] 0
interdiction[sink_25,sink_20] 0
interdiction[sink_25,sink_15] 0
interdiction[sink_15,sink_29] 0
interdiction[sink_29,sink_28] 0
interdiction[sink_29,sink_2] 0
interdiction[sink_2,sink_15] 0
interdiction[sink_29,innode_7] 0
interdiction[innode_4,sink_19] 0
interdiction[sink_19,innode_3] 0
interdiction[innode_4,innode_5] 0
interdiction[sink_27,innode_5] 0
interdiction[sink_27,sink_19] 0
interdiction[sink_10,sink_11] 0
interdiction[sink_10,innode_2] 0
interdiction[sink_10,innode_3] 0
interdiction[innode_6,sink_25] 0
interdiction[sink_11,innode_1] 0
interdiction[sink_19,innode_2] 0
interdiction[source_3,innode_4] 0
interdiction[source_2,innode_7] 0
interdiction[sink_3,innode_8] 0
WCcheckFlow[source_1,sink_3] 39
WCcheckFlow[innode_1,sink_16] 1
WCcheckFlow[innode_6,sink_13] 13
WCcheckFlow[sink_13,sink_14] 12
WCcheckFlow[sink_14,sink_10] 11
WCcheckFlow[sink_25,sink_26] 3
WCcheckFlow[sink_26,sink_9] 1
WCcheckFlow[sink_9,sink_18] 0
WCcheckFlow[sink_26,sink_4] 1
WCcheckFlow[sink_4,sink_20] 0
WCcheckFlow[sink_18,sink_6] -1
WCcheckFlow[sink_25,innode_8] -36
WCcheckFlow[sink_6,sink_7] -4
WCcheckFlow[sink_6,sink_22] 2
WCcheckFlow[sink_7,sink_24] 3
WCcheckFlow[sink_22,sink_1] 1
WCcheckFlow[sink_24,sink_21] 2
WCcheckFlow[sink_21,sink_12] 1
WCcheckFlow[sink_7,sink_5] -8
WCcheckFlow[sink_5,sink_17] -9
WCcheckFlow[sink_17,sink_4] 0
WCcheckFlow[sink_17,sink_8] -10
WCcheckFlow[sink_3,sink_23] 1
WCcheckFlow[sink_8,sink_20] -11
WCcheckFlow[sink_25,sink_20] 12
WCcheckFlow[sink_25,sink_15] 6
WCcheckFlow[sink_15,sink_29] 5
WCcheckFlow[sink_29,sink_28] 1
WCcheckFlow[sink_29,sink_2] 1
WCcheckFlow[sink_2,sink_15] 0
WCcheckFlow[sink_29,innode_7] 2
WCcheckFlow[innode_4,sink_19] -4
WCcheckFlow[sink_19,innode_3] -5
WCcheckFlow[innode_4,innode_5] 2
WCcheckFlow[sink_27,innode_5] -1
WCcheckFlow[sink_27,sink_19] 0
WCcheckFlow[sink_10,sink_11] 3
WCcheckFlow[sink_10,innode_2] 1
WCcheckFlow[sink_10,innode_3] 6
WCcheckFlow[innode_6,sink_25] -14
WCcheckFlow[sink_11,innode_1] 2
WCcheckFlow[sink_19,innode_2] 0
WCcheckFlow[source_3,innode_4] -1
WCcheckFlow[source_2,innode_7] -1
WCcheckFlow[sink_3,innode_8] 37
